outputs/case_128.model.txt
necessary_steps_taken = False
audit_error = True
management_informed_of_modifications = False
auditor_took_appropriate_action = False
error_severity = 4
governance_unit_informed = False
documentation_updated = True
appropriate_action_taken = False
audit_follow_regulations = True
management_informed_and_action_taken = False
financial_report_available = True
error_penalty_level = 0
approval_required = True
evidence_sufficient = True
follow_rules = True
penalty = False
financial_report_placed_at_company_and_branches = True
sufficient_and_appropriate_evidence_obtained = True
audit_documentation_established_and_updated = True
audit_engagement_approved = True